p cnf 966 2481
51 -699 -1 0
-51 699 0
-51 1 0
52 -51 -700 0
-52 51 0
-52 700 0
53 -701 -4 0
-53 701 0
-53 4 0
54 -53 -6 0
-54 53 0
-54 6 0
55 -702 -703 0
-55 702 0
-55 703 0
56 -8 -7 0
-56 8 0
-56 7 0
57 -56 -704 0
-57 56 0
-57 704 0
58 -705 -55 0
-58 705 0
-58 55 0
59 -706 -707 0
-59 706 0
-59 707 0
60 -59 -708 0
-60 59 0
-60 708 0
61 -709 -58 0
-61 709 0
-61 58 0
62 -710 -12 0
-62 710 0
-62 12 0
63 -62 -14 0
-63 62 0
-63 14 0
64 -711 -61 0
-64 711 0
-64 61 0
65 -16 -712 0
-65 16 0
-65 712 0
66 -65 -704 0
-66 65 0
-66 704 0
67 -713 -64 0
-67 713 0
-67 64 0
68 -18 -714 0
-68 18 0
-68 714 0
69 -68 -715 0
-69 68 0
-69 715 0
70 -716 -67 0
-70 716 0
-70 67 0
71 -20 -704 0
-71 20 0
-71 704 0
72 -71 -717 0
-72 71 0
-72 717 0
73 -718 -70 0
-73 718 0
-73 70 0
74 -22 -16 0
-74 22 0
-74 16 0
75 -74 -23 0
-75 74 0
-75 23 0
76 -719 -73 0
-76 719 0
-76 73 0
77 -720 -10 0
-77 720 0
-77 10 0
78 -77 -721 0
-78 77 0
-78 721 0
79 -722 -76 0
-79 722 0
-79 76 0
80 -26 -723 0
-80 26 0
-80 723 0
81 -80 -704 0
-81 80 0
-81 704 0
82 -724 -79 0
-82 724 0
-82 79 0
83 -28 -27 0
-83 28 0
-83 27 0
84 -83 -12 0
-84 83 0
-84 12 0
85 -725 -82 0
-85 725 0
-85 82 0
86 -29 -6 0
-86 29 0
-86 6 0
87 -86 -8 0
-87 86 0
-87 8 0
88 -726 -85 0
-88 726 0
-88 85 0
89 -723 -727 0
-89 723 0
-89 727 0
90 -89 -30 0
-90 89 0
-90 30 0
91 -728 -88 0
-91 728 0
-91 88 0
92 -12 -729 0
-92 12 0
-92 729 0
93 -92 -730 0
-93 92 0
-93 730 0
94 -731 -91 0
-94 731 0
-94 91 0
95 -715 -732 0
-95 715 0
-95 732 0
96 -95 -733 0
-96 95 0
-96 733 0
97 -734 -94 0
-97 734 0
-97 94 0
98 -735 -717 0
-98 735 0
-98 717 0
99 -98 -33 0
-99 98 0
-99 33 0
100 -736 -97 0
-100 736 0
-100 97 0
101 -737 -721 0
-101 737 0
-101 721 0
102 -101 -738 0
-102 101 0
-102 738 0
103 -739 -100 0
-103 739 0
-103 100 0
104 -35 -25 0
-104 35 0
-104 25 0
105 -104 -730 0
-105 104 0
-105 730 0
106 -740 -103 0
-106 740 0
-106 103 0
107 -18 -12 0
-107 18 0
-107 12 0
108 -107 -741 0
-108 107 0
-108 741 0
109 -742 -106 0
-109 742 0
-109 106 0
110 -733 -10 0
-110 733 0
-110 10 0
111 -110 -743 0
-111 110 0
-111 743 0
112 -744 -109 0
-112 744 0
-112 109 0
113 -745 -16 0
-113 745 0
-113 16 0
114 -113 -746 0
-114 113 0
-114 746 0
115 -747 -112 0
-115 747 0
-115 112 0
116 -707 -701 0
-116 707 0
-116 701 0
117 -116 -11 0
-117 116 0
-117 11 0
118 -748 -115 0
-118 748 0
-118 115 0
119 -39 -15 0
-119 39 0
-119 15 0
120 -119 -30 0
-120 119 0
-120 30 0
121 -749 -118 0
-121 749 0
-121 118 0
122 -750 -11 0
-122 750 0
-122 11 0
123 -122 -751 0
-123 122 0
-123 751 0
124 -752 -121 0
-124 752 0
-124 121 0
125 -42 -706 0
-125 42 0
-125 706 0
126 -125 -35 0
-126 125 0
-126 35 0
127 -753 -124 0
-127 753 0
-127 124 0
128 -27 -730 0
-128 27 0
-128 730 0
129 -128 -754 0
-129 128 0
-129 754 0
130 -755 -127 0
-130 755 0
-130 127 0
131 -28 -17 0
-131 28 0
-131 17 0
132 -131 -756 0
-132 131 0
-132 756 0
133 -757 -130 0
-133 757 0
-133 130 0
134 -706 -704 0
-134 706 0
-134 704 0
135 -134 -45 0
-135 134 0
-135 45 0
136 -758 -133 0
-136 758 0
-136 133 0
137 -759 -1 0
-137 759 0
-137 1 0
138 -137 -700 0
-138 137 0
-138 700 0
139 -760 -136 0
-139 760 0
-139 136 0
140 -16 -729 0
-140 16 0
-140 729 0
141 -140 -708 0
-141 140 0
-141 708 0
142 -761 -139 0
-142 761 0
-142 139 0
143 -756 -750 0
-143 756 0
-143 750 0
144 -143 -8 0
-144 143 0
-144 8 0
145 -762 -142 0
-145 762 0
-145 142 0
146 -756 -5 0
-146 756 0
-146 5 0
147 -146 -31 0
-147 146 0
-147 31 0
148 -763 -145 0
-148 763 0
-148 145 0
149 -34 -764 0
-149 34 0
-149 764 0
150 -149 -704 0
-150 149 0
-150 704 0
151 -765 -148 0
-151 765 0
-151 148 0
152 -766 -46 0
-152 766 0
-152 46 0
153 -152 -15 0
-153 152 0
-153 15 0
154 -767 -151 0
-154 767 0
-154 151 0
155 -12 -701 0
-155 12 0
-155 701 0
156 -155 -733 0
-156 155 0
-156 733 0
157 -768 -154 0
-157 768 0
-157 154 0
158 -769 -4 0
-158 769 0
-158 4 0
159 -158 -733 0
-159 158 0
-159 733 0
160 -770 -157 0
-160 770 0
-160 157 0
161 -45 -729 0
-161 45 0
-161 729 0
162 -161 -43 0
-162 161 0
-162 43 0
163 -771 -160 0
-163 771 0
-163 160 0
164 -707 -764 0
-164 707 0
-164 764 0
165 -164 -772 0
-165 164 0
-165 772 0
166 -773 -163 0
-166 773 0
-166 163 0
167 -24 -774 0
-167 24 0
-167 774 0
168 -167 -775 0
-168 167 0
-168 775 0
169 -776 -166 0
-169 776 0
-169 166 0
170 -745 -737 0
-170 745 0
-170 737 0
171 -170 -704 0
-171 170 0
-171 704 0
172 -777 -169 0
-172 777 0
-172 169 0
173 -778 -12 0
-173 778 0
-173 12 0
174 -173 -44 0
-174 173 0
-174 44 0
175 -779 -172 0
-175 779 0
-175 172 0
176 -21 -715 0
-176 21 0
-176 715 0
177 -176 -36 0
-177 176 0
-177 36 0
178 -780 -175 0
-178 780 0
-178 175 0
179 -712 -704 0
-179 712 0
-179 704 0
180 -179 -741 0
-180 179 0
-180 741 0
181 -781 -178 0
-181 781 0
-181 178 0
182 -769 -720 0
-182 769 0
-182 720 0
183 -182 -22 0
-183 182 0
-183 22 0
184 -782 -181 0
-184 782 0
-184 181 0
185 -49 -24 0
-185 49 0
-185 24 0
186 -185 -45 0
-186 185 0
-186 45 0
187 -783 -184 0
-187 783 0
-187 184 0
188 -40 -17 0
-188 40 0
-188 17 0
189 -188 -754 0
-189 188 0
-189 754 0
190 -784 -187 0
-190 784 0
-190 187 0
191 -766 -40 0
-191 766 0
-191 40 0
192 -191 -785 0
-192 191 0
-192 785 0
193 -786 -190 0
-193 786 0
-193 190 0
194 -787 -9 0
-194 787 0
-194 9 0
195 -194 -751 0
-195 194 0
-195 751 0
196 -788 -193 0
-196 788 0
-196 193 0
197 -47 -44 0
-197 47 0
-197 44 0
198 -197 -775 0
-198 197 0
-198 775 0
199 -789 -196 0
-199 789 0
-199 196 0
200 -732 -790 0
-200 732 0
-200 790 0
201 -200 -700 0
-201 200 0
-201 700 0
202 -791 -199 0
-202 791 0
-202 199 0
203 -732 -7 0
-203 732 0
-203 7 0
204 -203 -21 0
-204 203 0
-204 21 0
205 -792 -202 0
-205 792 0
-205 202 0
206 -42 -790 0
-206 42 0
-206 790 0
207 -206 -36 0
-207 206 0
-207 36 0
208 -793 -205 0
-208 793 0
-208 205 0
209 -720 -729 0
-209 720 0
-209 729 0
210 -209 -44 0
-210 209 0
-210 44 0
211 -794 -208 0
-211 794 0
-211 208 0
212 -710 -707 0
-212 710 0
-212 707 0
213 -212 -37 0
-213 212 0
-213 37 0
214 -795 -211 0
-214 795 0
-214 211 0
215 -38 -10 0
-215 38 0
-215 10 0
216 -215 -20 0
-216 215 0
-216 20 0
217 -796 -214 0
-217 796 0
-217 214 0
218 -42 -26 0
-218 42 0
-218 26 0
219 -218 -36 0
-219 218 0
-219 36 0
220 -797 -217 0
-220 797 0
-220 217 0
221 -12 -699 0
-221 12 0
-221 699 0
222 -221 -798 0
-222 221 0
-222 798 0
223 -799 -220 0
-223 799 0
-223 220 0
224 -743 -30 0
-224 743 0
-224 30 0
225 -224 -730 0
-225 224 0
-225 730 0
226 -800 -223 0
-226 800 0
-226 223 0
227 -769 -44 0
-227 769 0
-227 44 0
228 -227 -717 0
-228 227 0
-228 717 0
229 -801 -226 0
-229 801 0
-229 226 0
230 -701 -2 0
-230 701 0
-230 2 0
231 -230 -790 0
-231 230 0
-231 790 0
232 -802 -229 0
-232 802 0
-232 229 0
233 -49 -31 0
-233 49 0
-233 31 0
234 -233 -43 0
-234 233 0
-234 43 0
235 -803 -232 0
-235 803 0
-235 232 0
236 -18 -701 0
-236 18 0
-236 701 0
237 -236 -721 0
-237 236 0
-237 721 0
238 -804 -235 0
-238 804 0
-238 235 0
239 -778 -39 0
-239 778 0
-239 39 0
240 -239 -743 0
-240 239 0
-240 743 0
241 -805 -238 0
-241 805 0
-241 238 0
242 -4 -2 0
-242 4 0
-242 2 0
243 -242 -756 0
-243 242 0
-243 756 0
244 -806 -241 0
-244 806 0
-244 241 0
245 -700 -807 0
-245 700 0
-245 807 0
246 -245 -25 0
-246 245 0
-246 25 0
247 -808 -244 0
-247 808 0
-247 244 0
248 -809 -12 0
-248 809 0
-248 12 0
249 -248 -810 0
-249 248 0
-249 810 0
250 -811 -247 0
-250 811 0
-250 247 0
251 -7 -6 0
-251 7 0
-251 6 0
252 -251 -12 0
-252 251 0
-252 12 0
253 -812 -250 0
-253 812 0
-253 250 0
254 -809 -3 0
-254 809 0
-254 3 0
255 -254 -741 0
-255 254 0
-255 741 0
256 -813 -253 0
-256 813 0
-256 253 0
257 -787 -764 0
-257 787 0
-257 764 0
258 -257 -735 0
-258 257 0
-258 735 0
259 -814 -256 0
-259 814 0
-259 256 0
260 -772 -707 0
-260 772 0
-260 707 0
261 -260 -33 0
-261 260 0
-261 33 0
262 -815 -259 0
-262 815 0
-262 259 0
263 -708 -1 0
-263 708 0
-263 1 0
264 -263 -733 0
-264 263 0
-264 733 0
265 -816 -262 0
-265 816 0
-265 262 0
266 -756 -772 0
-266 756 0
-266 772 0
267 -266 -743 0
-267 266 0
-267 743 0
268 -817 -265 0
-268 817 0
-268 265 0
269 -50 -766 0
-269 50 0
-269 766 0
270 -269 -754 0
-270 269 0
-270 754 0
271 -818 -268 0
-271 818 0
-271 268 0
272 -26 -700 0
-272 26 0
-272 700 0
273 -272 -775 0
-273 272 0
-273 775 0
274 -819 -271 0
-274 819 0
-274 271 0
275 -18 -790 0
-275 18 0
-275 790 0
276 -275 -820 0
-276 275 0
-276 820 0
277 -821 -274 0
-277 821 0
-277 274 0
278 -707 -6 0
-278 707 0
-278 6 0
279 -278 -42 0
-279 278 0
-279 42 0
280 -822 -277 0
-280 822 0
-280 277 0
281 -19 -4 0
-281 19 0
-281 4 0
282 -281 -700 0
-282 281 0
-282 700 0
283 -823 -280 0
-283 823 0
-283 280 0
284 -824 -787 0
-284 824 0
-284 787 0
285 -284 -35 0
-285 284 0
-285 35 0
286 -825 -283 0
-286 825 0
-286 283 0
287 -824 -715 0
-287 824 0
-287 715 0
288 -287 -708 0
-288 287 0
-288 708 0
289 -826 -286 0
-289 826 0
-289 286 0
290 -820 -720 0
-290 820 0
-290 720 0
291 -290 -35 0
-291 290 0
-291 35 0
292 -827 -289 0
-292 827 0
-292 289 0
293 -38 -20 0
-293 38 0
-293 20 0
294 -293 -28 0
-294 293 0
-294 28 0
295 -828 -292 0
-295 828 0
-295 292 0
296 -44 -810 0
-296 44 0
-296 810 0
297 -296 -30 0
-297 296 0
-297 30 0
298 -829 -295 0
-298 829 0
-298 295 0
299 -745 -764 0
-299 745 0
-299 764 0
300 -299 -46 0
-300 299 0
-300 46 0
301 -830 -298 0
-301 830 0
-301 298 0
302 -44 -717 0
-302 44 0
-302 717 0
303 -302 -775 0
-303 302 0
-303 775 0
304 -831 -301 0
-304 831 0
-304 301 0
305 -44 -729 0
-305 44 0
-305 729 0
306 -305 -730 0
-306 305 0
-306 730 0
307 -832 -304 0
-307 832 0
-307 304 0
308 -769 -3 0
-308 769 0
-308 3 0
309 -308 -30 0
-309 308 0
-309 30 0
310 -833 -307 0
-310 833 0
-310 307 0
311 -717 -727 0
-311 717 0
-311 727 0
312 -311 -743 0
-312 311 0
-312 743 0
313 -834 -310 0
-313 834 0
-313 310 0
314 -835 -20 0
-314 835 0
-314 20 0
315 -314 -729 0
-315 314 0
-315 729 0
316 -836 -313 0
-316 836 0
-316 313 0
317 -737 -29 0
-317 737 0
-317 29 0
318 -317 -14 0
-318 317 0
-318 14 0
319 -837 -316 0
-319 837 0
-319 316 0
320 -50 -707 0
-320 50 0
-320 707 0
321 -320 -715 0
-321 320 0
-321 715 0
322 -838 -319 0
-322 838 0
-322 319 0
323 -759 -710 0
-323 759 0
-323 710 0
324 -323 -754 0
-324 323 0
-324 754 0
325 -839 -322 0
-325 839 0
-325 322 0
326 -12 -764 0
-326 12 0
-326 764 0
327 -326 -730 0
-327 326 0
-327 730 0
328 -840 -325 0
-328 840 0
-328 325 0
329 -24 -23 0
-329 24 0
-329 23 0
330 -329 -43 0
-330 329 0
-330 43 0
331 -841 -328 0
-331 841 0
-331 328 0
332 -810 -26 0
-332 810 0
-332 26 0
333 -332 -45 0
-333 332 0
-333 45 0
334 -842 -331 0
-334 842 0
-334 331 0
335 -10 -699 0
-335 10 0
-335 699 0
336 -335 -743 0
-336 335 0
-336 743 0
337 -843 -334 0
-337 843 0
-337 334 0
338 -759 -807 0
-338 759 0
-338 807 0
339 -338 -9 0
-339 338 0
-339 9 0
340 -844 -337 0
-340 844 0
-340 337 0
341 -735 -787 0
-341 735 0
-341 787 0
342 -341 -730 0
-342 341 0
-342 730 0
343 -845 -340 0
-343 845 0
-343 340 0
344 -19 -5 0
-344 19 0
-344 5 0
345 -344 -798 0
-345 344 0
-345 798 0
346 -846 -343 0
-346 846 0
-346 343 0
347 -47 -699 0
-347 47 0
-347 699 0
348 -347 -741 0
-348 347 0
-348 741 0
349 -847 -346 0
-349 847 0
-349 346 0
350 -732 -2 0
-350 732 0
-350 2 0
351 -350 -704 0
-351 350 0
-351 704 0
352 -848 -349 0
-352 848 0
-352 349 0
353 -18 -16 0
-353 18 0
-353 16 0
354 -353 -809 0
-354 353 0
-354 809 0
355 -849 -352 0
-355 849 0
-355 352 0
356 -732 -710 0
-356 732 0
-356 710 0
357 -356 -43 0
-357 356 0
-357 43 0
358 -850 -355 0
-358 850 0
-358 355 0
359 -787 -723 0
-359 787 0
-359 723 0
360 -359 -44 0
-360 359 0
-360 44 0
361 -851 -358 0
-361 851 0
-361 358 0
362 -766 -706 0
-362 766 0
-362 706 0
363 -362 -29 0
-363 362 0
-363 29 0
364 -852 -361 0
-364 852 0
-364 361 0
365 -745 -732 0
-365 745 0
-365 732 0
366 -365 -3 0
-366 365 0
-366 3 0
367 -853 -364 0
-367 853 0
-367 364 0
368 -26 -720 0
-368 26 0
-368 720 0
369 -368 -790 0
-369 368 0
-369 790 0
370 -854 -367 0
-370 854 0
-370 367 0
371 -774 -17 0
-371 774 0
-371 17 0
372 -371 -746 0
-372 371 0
-372 746 0
373 -855 -370 0
-373 855 0
-373 370 0
374 -17 -6 0
-374 17 0
-374 6 0
375 -374 -18 0
-375 374 0
-375 18 0
376 -856 -373 0
-376 856 0
-376 373 0
377 -772 -31 0
-377 772 0
-377 31 0
378 -377 -45 0
-378 377 0
-378 45 0
379 -857 -376 0
-379 857 0
-379 376 0
380 -706 -807 0
-380 706 0
-380 807 0
381 -380 -20 0
-381 380 0
-381 20 0
382 -858 -379 0
-382 858 0
-382 379 0
383 -810 -9 0
-383 810 0
-383 9 0
384 -383 -730 0
-384 383 0
-384 730 0
385 -859 -382 0
-385 859 0
-385 382 0
386 -835 -720 0
-386 835 0
-386 720 0
387 -386 -810 0
-387 386 0
-387 810 0
388 -860 -385 0
-388 860 0
-388 385 0
389 -756 -24 0
-389 756 0
-389 24 0
390 -389 -33 0
-390 389 0
-390 33 0
391 -861 -388 0
-391 861 0
-391 388 0
392 -17 -699 0
-392 17 0
-392 699 0
393 -392 -727 0
-393 392 0
-393 727 0
394 -862 -391 0
-394 862 0
-394 391 0
395 -714 -2 0
-395 714 0
-395 2 0
396 -395 -49 0
-396 395 0
-396 49 0
397 -863 -394 0
-397 863 0
-397 394 0
398 -19 -746 0
-398 19 0
-398 746 0
399 -398 -45 0
-399 398 0
-399 45 0
400 -864 -397 0
-400 864 0
-400 397 0
401 -798 -746 0
-401 798 0
-401 746 0
402 -401 -721 0
-402 401 0
-402 721 0
403 -865 -400 0
-403 865 0
-403 400 0
404 -50 -699 0
-404 50 0
-404 699 0
405 -404 -700 0
-405 404 0
-405 700 0
406 -866 -403 0
-406 866 0
-406 403 0
407 -19 -6 0
-407 19 0
-407 6 0
408 -407 -42 0
-408 407 0
-408 42 0
409 -867 -406 0
-409 867 0
-409 406 0
410 -720 -6 0
-410 720 0
-410 6 0
411 -410 -28 0
-411 410 0
-411 28 0
412 -868 -409 0
-412 868 0
-412 409 0
413 -745 -4 0
-413 745 0
-413 4 0
414 -413 -737 0
-414 413 0
-414 737 0
415 -869 -412 0
-415 869 0
-415 412 0
416 -39 -21 0
-416 39 0
-416 21 0
417 -416 -754 0
-417 416 0
-417 754 0
418 -870 -415 0
-418 870 0
-418 415 0
419 -33 -20 0
-419 33 0
-419 20 0
420 -419 -754 0
-420 419 0
-420 754 0
421 -871 -418 0
-421 871 0
-421 418 0
422 -735 -807 0
-422 735 0
-422 807 0
423 -422 -721 0
-423 422 0
-423 721 0
424 -872 -421 0
-424 872 0
-424 421 0
425 -721 -11 0
-425 721 0
-425 11 0
426 -425 -743 0
-426 425 0
-426 743 0
427 -873 -424 0
-427 873 0
-427 424 0
428 -34 -20 0
-428 34 0
-428 20 0
429 -428 -704 0
-429 428 0
-429 704 0
430 -874 -427 0
-430 874 0
-430 427 0
431 -26 -710 0
-431 26 0
-431 710 0
432 -431 -3 0
-432 431 0
-432 3 0
433 -875 -430 0
-433 875 0
-433 430 0
434 -769 -27 0
-434 769 0
-434 27 0
435 -434 -22 0
-435 434 0
-435 22 0
436 -876 -433 0
-436 876 0
-436 433 0
437 -835 -23 0
-437 835 0
-437 23 0
438 -437 -25 0
-438 437 0
-438 25 0
439 -877 -436 0
-439 877 0
-439 436 0
440 -715 -710 0
-440 715 0
-440 710 0
441 -440 -810 0
-441 440 0
-441 810 0
442 -878 -439 0
-442 878 0
-442 439 0
443 -809 -746 0
-443 809 0
-443 746 0
444 -443 -700 0
-444 443 0
-444 700 0
445 -879 -442 0
-445 879 0
-445 442 0
446 -772 -9 0
-446 772 0
-446 9 0
447 -446 -754 0
-447 446 0
-447 754 0
448 -880 -445 0
-448 880 0
-448 445 0
449 -759 -727 0
-449 759 0
-449 727 0
450 -449 -790 0
-450 449 0
-450 790 0
451 -881 -448 0
-451 881 0
-451 448 0
452 -778 -26 0
-452 778 0
-452 26 0
453 -452 -820 0
-453 452 0
-453 820 0
454 -882 -451 0
-454 882 0
-454 451 0
455 -745 -20 0
-455 745 0
-455 20 0
456 -455 -775 0
-456 455 0
-456 775 0
457 -883 -454 0
-457 883 0
-457 454 0
458 -772 -19 0
-458 772 0
-458 19 0
459 -458 -751 0
-459 458 0
-459 751 0
460 -884 -457 0
-460 884 0
-460 457 0
461 -21 -16 0
-461 21 0
-461 16 0
462 -461 -30 0
-462 461 0
-462 30 0
463 -885 -460 0
-463 885 0
-463 460 0
464 -26 -764 0
-464 26 0
-464 764 0
465 -464 -732 0
-465 464 0
-465 732 0
466 -886 -463 0
-466 886 0
-466 463 0
467 -9 -1 0
-467 9 0
-467 1 0
468 -467 -721 0
-468 467 0
-468 721 0
469 -887 -466 0
-469 887 0
-469 466 0
470 -36 -746 0
-470 36 0
-470 746 0
471 -470 -35 0
-471 470 0
-471 35 0
472 -888 -469 0
-472 888 0
-472 469 0
473 -787 -700 0
-473 787 0
-473 700 0
474 -473 -738 0
-474 473 0
-474 738 0
475 -889 -472 0
-475 889 0
-475 472 0
476 -743 -746 0
-476 743 0
-476 746 0
477 -476 -45 0
-477 476 0
-477 45 0
478 -890 -475 0
-478 890 0
-478 475 0
479 -44 -733 0
-479 44 0
-479 733 0
480 -479 -775 0
-480 479 0
-480 775 0
481 -891 -478 0
-481 891 0
-481 478 0
482 -42 -10 0
-482 42 0
-482 10 0
483 -482 -3 0
-483 482 0
-483 3 0
484 -892 -481 0
-484 892 0
-484 481 0
485 -720 -790 0
-485 720 0
-485 790 0
486 -485 -810 0
-486 485 0
-486 810 0
487 -893 -484 0
-487 893 0
-487 484 0
488 -778 -714 0
-488 778 0
-488 714 0
489 -488 -700 0
-489 488 0
-489 700 0
490 -894 -487 0
-490 894 0
-490 487 0
491 -18 -15 0
-491 18 0
-491 15 0
492 -491 -12 0
-492 491 0
-492 12 0
493 -895 -490 0
-493 895 0
-493 490 0
494 -46 -44 0
-494 46 0
-494 44 0
495 -494 -8 0
-495 494 0
-495 8 0
496 -896 -493 0
-496 896 0
-496 493 0
497 -723 -6 0
-497 723 0
-497 6 0
498 -497 -9 0
-498 497 0
-498 9 0
499 -897 -496 0
-499 897 0
-499 496 0
500 -785 -26 0
-500 785 0
-500 26 0
501 -500 -743 0
-501 500 0
-501 743 0
502 -898 -499 0
-502 898 0
-502 499 0
503 -785 -13 0
-503 785 0
-503 13 0
504 -503 -35 0
-504 503 0
-504 35 0
505 -899 -502 0
-505 899 0
-505 502 0
506 -720 -701 0
-506 720 0
-506 701 0
507 -506 -715 0
-507 506 0
-507 715 0
508 -900 -505 0
-508 900 0
-508 505 0
509 -51 -733 0
-509 51 0
-509 733 0
510 -901 -508 0
-510 901 0
-510 508 0
511 -745 -28 0
-511 745 0
-511 28 0
512 -511 -39 0
-512 511 0
-512 39 0
513 -902 -510 0
-513 902 0
-513 510 0
514 -735 -20 0
-514 735 0
-514 20 0
515 -514 -751 0
-515 514 0
-515 751 0
516 -903 -513 0
-516 903 0
-516 513 0
517 -47 -4 0
-517 47 0
-517 4 0
518 -517 -904 0
-518 517 0
-518 904 0
519 -905 -516 0
-519 905 0
-519 516 0
520 -27 -15 0
-520 27 0
-520 15 0
521 -520 -751 0
-521 520 0
-521 751 0
522 -906 -519 0
-522 906 0
-522 519 0
523 -835 -715 0
-523 835 0
-523 715 0
524 -523 -772 0
-524 523 0
-524 772 0
525 -907 -522 0
-525 907 0
-525 522 0
526 -21 -5 0
-526 21 0
-526 5 0
527 -526 -41 0
-527 526 0
-527 41 0
528 -908 -525 0
-528 908 0
-528 525 0
529 -835 -729 0
-529 835 0
-529 729 0
530 -529 -730 0
-530 529 0
-530 730 0
531 -909 -528 0
-531 909 0
-531 528 0
532 -49 -766 0
-532 49 0
-532 766 0
533 -532 -730 0
-533 532 0
-533 730 0
534 -910 -531 0
-534 910 0
-534 531 0
535 -732 -701 0
-535 732 0
-535 701 0
536 -535 -12 0
-536 535 0
-536 12 0
537 -911 -534 0
-537 911 0
-537 534 0
538 -741 -15 0
-538 741 0
-538 15 0
539 -538 -754 0
-539 538 0
-539 754 0
540 -912 -537 0
-540 912 0
-540 537 0
541 -824 -26 0
-541 824 0
-541 26 0
542 -541 -759 0
-542 541 0
-542 759 0
543 -913 -540 0
-543 913 0
-543 540 0
544 -40 -38 0
-544 40 0
-544 38 0
545 -544 -729 0
-545 544 0
-545 729 0
546 -914 -543 0
-546 914 0
-546 543 0
547 -44 -699 0
-547 44 0
-547 699 0
548 -547 -8 0
-548 547 0
-548 8 0
549 -915 -546 0
-549 915 0
-549 546 0
550 -714 -708 0
-550 714 0
-550 708 0
551 -550 -717 0
-551 550 0
-551 717 0
552 -916 -549 0
-552 916 0
-552 549 0
553 -778 -764 0
-553 778 0
-553 764 0
554 -553 -738 0
-554 553 0
-554 738 0
555 -917 -552 0
-555 917 0
-555 552 0
556 -13 -12 0
-556 13 0
-556 12 0
557 -556 -9 0
-557 556 0
-557 9 0
558 -918 -555 0
-558 918 0
-558 555 0
559 -741 -6 0
-559 741 0
-559 6 0
560 -559 -30 0
-560 559 0
-560 30 0
561 -919 -558 0
-561 919 0
-561 558 0
562 -824 -732 0
-562 824 0
-562 732 0
563 -562 -772 0
-563 562 0
-563 772 0
564 -920 -561 0
-564 920 0
-564 561 0
565 -33 -807 0
-565 33 0
-565 807 0
566 -565 -751 0
-566 565 0
-566 751 0
567 -921 -564 0
-567 921 0
-567 564 0
568 -714 -699 0
-568 714 0
-568 699 0
569 -568 -751 0
-569 568 0
-569 751 0
570 -922 -567 0
-570 922 0
-570 567 0
571 -39 -32 0
-571 39 0
-571 32 0
572 -571 -33 0
-572 571 0
-572 33 0
573 -923 -570 0
-573 923 0
-573 570 0
574 -723 -12 0
-574 723 0
-574 12 0
575 -574 -35 0
-575 574 0
-575 35 0
576 -924 -573 0
-576 924 0
-576 573 0
577 -19 -764 0
-577 19 0
-577 764 0
578 -577 -700 0
-578 577 0
-578 700 0
579 -925 -576 0
-579 925 0
-579 576 0
580 -835 -778 0
-580 835 0
-580 778 0
581 -580 -37 0
-581 580 0
-581 37 0
582 -926 -579 0
-582 926 0
-582 579 0
583 -766 -738 0
-583 766 0
-583 738 0
584 -583 -754 0
-584 583 0
-584 754 0
585 -927 -582 0
-585 927 0
-585 582 0
586 -48 -7 0
-586 48 0
-586 7 0
587 -586 -43 0
-587 586 0
-587 43 0
588 -928 -585 0
-588 928 0
-588 585 0
589 -707 -1 0
-589 707 0
-589 1 0
590 -589 -26 0
-590 589 0
-590 26 0
591 -929 -588 0
-591 929 0
-591 588 0
592 -24 -732 0
-592 24 0
-592 732 0
593 -592 -3 0
-593 592 0
-593 3 0
594 -930 -591 0
-594 930 0
-594 591 0
595 -24 -11 0
-595 24 0
-595 11 0
596 -595 -33 0
-596 595 0
-596 33 0
597 -931 -594 0
-597 931 0
-597 594 0
598 -13 -700 0
-598 13 0
-598 700 0
599 -598 -738 0
-599 598 0
-599 738 0
600 -932 -597 0
-600 932 0
-600 597 0
601 -46 -40 0
-601 46 0
-601 40 0
602 -601 -775 0
-602 601 0
-602 775 0
603 -933 -600 0
-603 933 0
-603 600 0
604 -778 -38 0
-604 778 0
-604 38 0
605 -604 -717 0
-605 604 0
-605 717 0
606 -934 -603 0
-606 934 0
-606 603 0
607 -514 -45 0
-607 514 0
-607 45 0
608 -935 -606 0
-608 935 0
-608 606 0
609 -727 -704 0
-609 727 0
-609 704 0
610 -609 -37 0
-610 609 0
-610 37 0
611 -936 -608 0
-611 936 0
-611 608 0
612 -281 -37 0
-612 281 0
-612 37 0
613 -937 -611 0
-613 937 0
-613 611 0
614 -745 -715 0
-614 745 0
-614 715 0
615 -614 -33 0
-615 614 0
-615 33 0
616 -938 -613 0
-616 938 0
-616 613 0
617 -743 -774 0
-617 743 0
-617 774 0
618 -617 -754 0
-618 617 0
-618 754 0
619 -939 -616 0
-619 939 0
-619 616 0
620 -38 -701 0
-620 38 0
-620 701 0
621 -620 -743 0
-621 620 0
-621 743 0
622 -940 -619 0
-622 940 0
-622 619 0
623 -31 -807 0
-623 31 0
-623 807 0
624 -623 -810 0
-624 623 0
-624 810 0
625 -941 -622 0
-625 941 0
-625 622 0
626 -778 -16 0
-626 778 0
-626 16 0
627 -626 -6 0
-627 626 0
-627 6 0
628 -942 -625 0
-628 942 0
-628 625 0
629 -835 -6 0
-629 835 0
-629 6 0
630 -629 -746 0
-630 629 0
-630 746 0
631 -943 -628 0
-631 943 0
-631 628 0
632 -714 -807 0
-632 714 0
-632 807 0
633 -632 -43 0
-633 632 0
-633 43 0
634 -944 -631 0
-634 944 0
-634 631 0
635 -766 -19 0
-635 766 0
-635 19 0
636 -635 -754 0
-636 635 0
-636 754 0
637 -945 -634 0
-637 945 0
-637 634 0
638 -42 -23 0
-638 42 0
-638 23 0
639 -638 -43 0
-639 638 0
-639 43 0
640 -946 -637 0
-640 946 0
-640 637 0
641 -39 -18 0
-641 39 0
-641 18 0
642 -641 -14 0
-642 641 0
-642 14 0
643 -947 -640 0
-643 947 0
-643 640 0
644 -134 -738 0
-644 134 0
-644 738 0
645 -948 -643 0
-645 948 0
-645 643 0
646 -140 -743 0
-646 140 0
-646 743 0
647 -949 -645 0
-647 949 0
-647 645 0
648 -750 -34 0
-648 750 0
-648 34 0
649 -648 -700 0
-649 648 0
-649 700 0
650 -950 -647 0
-650 950 0
-650 647 0
651 -756 -38 0
-651 756 0
-651 38 0
652 -651 -43 0
-652 651 0
-652 43 0
653 -951 -650 0
-653 951 0
-653 650 0
654 -824 -904 0
-654 824 0
-654 904 0
655 -654 -25 0
-655 654 0
-655 25 0
656 -952 -653 0
-656 952 0
-656 653 0
657 -737 -28 0
-657 737 0
-657 28 0
658 -657 -32 0
-658 657 0
-658 32 0
659 -953 -656 0
-659 953 0
-659 656 0
660 -20 -2 0
-660 20 0
-660 2 0
661 -660 -42 0
-661 660 0
-661 42 0
662 -954 -659 0
-662 954 0
-662 659 0
663 -778 -729 0
-663 778 0
-663 729 0
664 -663 -721 0
-664 663 0
-664 721 0
665 -955 -662 0
-665 955 0
-665 662 0
666 -50 -778 0
-666 50 0
-666 778 0
667 -666 -11 0
-667 666 0
-667 11 0
668 -956 -665 0
-668 956 0
-668 665 0
669 -809 -824 0
-669 809 0
-669 824 0
670 -669 -717 0
-670 669 0
-670 717 0
671 -957 -668 0
-671 957 0
-671 668 0
672 -46 -22 0
-672 46 0
-672 22 0
673 -672 -710 0
-673 672 0
-673 710 0
674 -958 -671 0
-674 958 0
-674 671 0
675 -759 -764 0
-675 759 0
-675 764 0
676 -675 -790 0
-676 675 0
-676 790 0
677 -959 -674 0
-677 959 0
-677 674 0
678 -715 -12 0
-678 715 0
-678 12 0
679 -678 -39 0
-679 678 0
-679 39 0
680 -960 -677 0
-680 960 0
-680 677 0
681 -48 -31 0
-681 48 0
-681 31 0
682 -681 -32 0
-682 681 0
-682 32 0
683 -961 -680 0
-683 961 0
-683 680 0
684 -750 -9 0
-684 750 0
-684 9 0
685 -684 -735 0
-685 684 0
-685 735 0
686 -962 -683 0
-686 962 0
-686 683 0
687 -34 -8 0
-687 34 0
-687 8 0
688 -687 -37 0
-688 687 0
-688 37 0
689 -963 -686 0
-689 963 0
-689 686 0
690 -769 -809 0
-690 769 0
-690 809 0
691 -690 -721 0
-691 690 0
-691 721 0
692 -964 -689 0
-692 964 0
-692 689 0
693 -700 -2 0
-693 700 0
-693 2 0
694 -693 -810 0
-694 693 0
-694 810 0
695 -965 -692 0
-695 965 0
-695 692 0
696 -50 -10 0
-696 50 0
-696 10 0
697 -696 -34 0
-697 696 0
-697 34 0
698 -966 -695 0
-698 966 0
-698 695 0
-699 -2 0
699 2 0
-700 -3 0
700 3 0
-701 -5 0
701 5 0
-702 -54 0
702 54 0
-703 -52 0
703 52 0
-704 -9 0
704 9 0
-705 -57 0
705 57 0
-706 -10 0
706 10 0
-707 -7 0
707 7 0
-708 -11 0
708 11 0
-709 -60 0
709 60 0
-710 -13 0
710 13 0
-711 -63 0
711 63 0
-712 -15 0
712 15 0
-713 -66 0
713 66 0
-714 -17 0
714 17 0
-715 -19 0
715 19 0
-716 -69 0
716 69 0
-717 -21 0
717 21 0
-718 -72 0
718 72 0
-719 -75 0
719 75 0
-720 -24 0
720 24 0
-721 -25 0
721 25 0
-722 -78 0
722 78 0
-723 -22 0
723 22 0
-724 -81 0
724 81 0
-725 -84 0
725 84 0
-726 -87 0
726 87 0
-727 -12 0
727 12 0
-728 -90 0
728 90 0
-729 -6 0
729 6 0
-730 -14 0
730 14 0
-731 -93 0
731 93 0
-732 -16 0
732 16 0
-733 -31 0
733 31 0
-734 -96 0
734 96 0
-735 -32 0
735 32 0
-736 -99 0
736 99 0
-737 -34 0
737 34 0
-738 -30 0
738 30 0
-739 -102 0
739 102 0
-740 -105 0
740 105 0
-741 -36 0
741 36 0
-742 -108 0
742 108 0
-743 -37 0
743 37 0
-744 -111 0
744 111 0
-745 -38 0
745 38 0
-746 -18 0
746 18 0
-747 -114 0
747 114 0
-748 -117 0
748 117 0
-749 -120 0
749 120 0
-750 -40 0
750 40 0
-751 -41 0
751 41 0
-752 -123 0
752 123 0
-753 -126 0
753 126 0
-754 -43 0
754 43 0
-755 -129 0
755 129 0
-756 -44 0
756 44 0
-757 -132 0
757 132 0
-758 -135 0
758 135 0
-759 -29 0
759 29 0
-760 -138 0
760 138 0
-761 -141 0
761 141 0
-762 -144 0
762 144 0
-763 -147 0
763 147 0
-764 -4 0
764 4 0
-765 -150 0
765 150 0
-766 -47 0
766 47 0
-767 -153 0
767 153 0
-768 -156 0
768 156 0
-769 -48 0
769 48 0
-770 -159 0
770 159 0
-771 -162 0
771 162 0
-772 -39 0
772 39 0
-773 -165 0
773 165 0
-774 -20 0
774 20 0
-775 -45 0
775 45 0
-776 -168 0
776 168 0
-777 -171 0
777 171 0
-778 -46 0
778 46 0
-779 -174 0
779 174 0
-780 -177 0
780 177 0
-781 -180 0
781 180 0
-782 -183 0
782 183 0
-783 -186 0
783 186 0
-784 -189 0
784 189 0
-785 -49 0
785 49 0
-786 -192 0
786 192 0
-787 -26 0
787 26 0
-788 -195 0
788 195 0
-789 -198 0
789 198 0
-790 -8 0
790 8 0
-791 -201 0
791 201 0
-792 -204 0
792 204 0
-793 -207 0
793 207 0
-794 -210 0
794 210 0
-795 -213 0
795 213 0
-796 -216 0
796 216 0
-797 -219 0
797 219 0
-798 -42 0
798 42 0
-799 -222 0
799 222 0
-800 -225 0
800 225 0
-801 -228 0
801 228 0
-802 -231 0
802 231 0
-803 -234 0
803 234 0
-804 -237 0
804 237 0
-805 -240 0
805 240 0
-806 -243 0
806 243 0
-807 -1 0
807 1 0
-808 -246 0
808 246 0
-809 -28 0
809 28 0
-810 -35 0
810 35 0
-811 -249 0
811 249 0
-812 -252 0
812 252 0
-813 -255 0
813 255 0
-814 -258 0
814 258 0
-815 -261 0
815 261 0
-816 -264 0
816 264 0
-817 -267 0
817 267 0
-818 -270 0
818 270 0
-819 -273 0
819 273 0
-820 -33 0
820 33 0
-821 -276 0
821 276 0
-822 -279 0
822 279 0
-823 -282 0
823 282 0
-824 -27 0
824 27 0
-825 -285 0
825 285 0
-826 -288 0
826 288 0
-827 -291 0
827 291 0
-828 -294 0
828 294 0
-829 -297 0
829 297 0
-830 -300 0
830 300 0
-831 -303 0
831 303 0
-832 -306 0
832 306 0
-833 -309 0
833 309 0
-834 -312 0
834 312 0
-835 -50 0
835 50 0
-836 -315 0
836 315 0
-837 -318 0
837 318 0
-838 -321 0
838 321 0
-839 -324 0
839 324 0
-840 -327 0
840 327 0
-841 -330 0
841 330 0
-842 -333 0
842 333 0
-843 -336 0
843 336 0
-844 -339 0
844 339 0
-845 -342 0
845 342 0
-846 -345 0
846 345 0
-847 -348 0
847 348 0
-848 -351 0
848 351 0
-849 -354 0
849 354 0
-850 -357 0
850 357 0
-851 -360 0
851 360 0
-852 -363 0
852 363 0
-853 -366 0
853 366 0
-854 -369 0
854 369 0
-855 -372 0
855 372 0
-856 -375 0
856 375 0
-857 -378 0
857 378 0
-858 -381 0
858 381 0
-859 -384 0
859 384 0
-860 -387 0
860 387 0
-861 -390 0
861 390 0
-862 -393 0
862 393 0
-863 -396 0
863 396 0
-864 -399 0
864 399 0
-865 -402 0
865 402 0
-866 -405 0
866 405 0
-867 -408 0
867 408 0
-868 -411 0
868 411 0
-869 -414 0
869 414 0
-870 -417 0
870 417 0
-871 -420 0
871 420 0
-872 -423 0
872 423 0
-873 -426 0
873 426 0
-874 -429 0
874 429 0
-875 -432 0
875 432 0
-876 -435 0
876 435 0
-877 -438 0
877 438 0
-878 -441 0
878 441 0
-879 -444 0
879 444 0
-880 -447 0
880 447 0
-881 -450 0
881 450 0
-882 -453 0
882 453 0
-883 -456 0
883 456 0
-884 -459 0
884 459 0
-885 -462 0
885 462 0
-886 -465 0
886 465 0
-887 -468 0
887 468 0
-888 -471 0
888 471 0
-889 -474 0
889 474 0
-890 -477 0
890 477 0
-891 -480 0
891 480 0
-892 -483 0
892 483 0
-893 -486 0
893 486 0
-894 -489 0
894 489 0
-895 -492 0
895 492 0
-896 -495 0
896 495 0
-897 -498 0
897 498 0
-898 -501 0
898 501 0
-899 -504 0
899 504 0
-900 -507 0
900 507 0
-901 -509 0
901 509 0
-902 -512 0
902 512 0
-903 -515 0
903 515 0
-904 -23 0
904 23 0
-905 -518 0
905 518 0
-906 -521 0
906 521 0
-907 -524 0
907 524 0
-908 -527 0
908 527 0
-909 -530 0
909 530 0
-910 -533 0
910 533 0
-911 -536 0
911 536 0
-912 -539 0
912 539 0
-913 -542 0
913 542 0
-914 -545 0
914 545 0
-915 -548 0
915 548 0
-916 -551 0
916 551 0
-917 -554 0
917 554 0
-918 -557 0
918 557 0
-919 -560 0
919 560 0
-920 -563 0
920 563 0
-921 -566 0
921 566 0
-922 -569 0
922 569 0
-923 -572 0
923 572 0
-924 -575 0
924 575 0
-925 -578 0
925 578 0
-926 -581 0
926 581 0
-927 -584 0
927 584 0
-928 -587 0
928 587 0
-929 -590 0
929 590 0
-930 -593 0
930 593 0
-931 -596 0
931 596 0
-932 -599 0
932 599 0
-933 -602 0
933 602 0
-934 -605 0
934 605 0
-935 -607 0
935 607 0
-936 -610 0
936 610 0
-937 -612 0
937 612 0
-938 -615 0
938 615 0
-939 -618 0
939 618 0
-940 -621 0
940 621 0
-941 -624 0
941 624 0
-942 -627 0
942 627 0
-943 -630 0
943 630 0
-944 -633 0
944 633 0
-945 -636 0
945 636 0
-946 -639 0
946 639 0
-947 -642 0
947 642 0
-948 -644 0
948 644 0
-949 -646 0
949 646 0
-950 -649 0
950 649 0
-951 -652 0
951 652 0
-952 -655 0
952 655 0
-953 -658 0
953 658 0
-954 -661 0
954 661 0
-955 -664 0
955 664 0
-956 -667 0
956 667 0
-957 -670 0
957 670 0
-958 -673 0
958 673 0
-959 -676 0
959 676 0
-960 -679 0
960 679 0
-961 -682 0
961 682 0
-962 -685 0
962 685 0
-963 -688 0
963 688 0
-964 -691 0
964 691 0
-965 -694 0
965 694 0
-966 -697 0
966 697 0
698 0
